
############ INITIALIZATION PARAMETERS ############
include ${script_path}/init.lmp
include /home/adi/workspace-directory/courses/iitr-phn600b-msc-thesis-project/code/../runs/nve_lammps_pair_style/scripts/init.lmp
variable num_atom_types      equal 2
variable initial_num_atoms   equal 501
variable initial_density     equal 1.655
variable initial_temperature equal 0.28
variable initial_pressure    equal 2.37*10^(-6)
variable dt equal 0.001

############ CREATE CUBIC SIMULATION BOX ############
variable box       equal (${initial_num_atoms}/${initial_density})^(1.0/3.0)
variable box       equal (501/${initial_density})^(1.0/3.0)
variable box       equal (501/1.655)^(1.0/3.0)
variable box_end   equal 0.5*${box}
variable box_end   equal 0.5*6.71449326567
variable box_start equal -0.5*${box}
variable box_start equal -0.5*6.71449326567

region          simulation_box block ${box_start} ${box_end} ${box_start} ${box_end} ${box_start} ${box_end}
region          simulation_box block -3.357246632835 ${box_end} ${box_start} ${box_end} ${box_start} ${box_end}
region          simulation_box block -3.357246632835 3.357246632835 ${box_start} ${box_end} ${box_start} ${box_end}
region          simulation_box block -3.357246632835 3.357246632835 -3.357246632835 ${box_end} ${box_start} ${box_end}
region          simulation_box block -3.357246632835 3.357246632835 -3.357246632835 3.357246632835 ${box_start} ${box_end}
region          simulation_box block -3.357246632835 3.357246632835 -3.357246632835 3.357246632835 -3.357246632835 ${box_end}
region          simulation_box block -3.357246632835 3.357246632835 -3.357246632835 3.357246632835 -3.357246632835 3.357246632835
create_box      ${num_atom_types} simulation_box
create_box      2 simulation_box
Created orthogonal box = (-3.3572466 -3.3572466 -3.3572466) to (3.3572466 3.3572466 3.3572466)
  2 by 2 by 2 MPI processor grid

############ PRINT INITIAL CONFIGURATION ############
print "Initial Num Atoms = ${initial_num_atoms}"
Initial Num Atoms = 501
print "Initial Density = ${initial_density}"
Initial Density = 1.655
print "Initial Pressure = ${initial_pressure}"
Initial Pressure = 2.37e-06
print "Initial Temperature = ${initial_temperature}"
Initial Temperature = 0.28
print "Initial Cubic Box Length = ${box}"
Initial Cubic Box Length = 6.71449326567

############ INITIALIZE INTERACTIONS ############
include ${script_path}/interaction.lmp
include /home/adi/workspace-directory/courses/iitr-phn600b-msc-thesis-project/code/../runs/nve_lammps_pair_style/scripts/interaction.lmp
variable ntw_gamma equal 2.2
variable cut equal 12.0/2.84

############ INITIALIZE INTERACTIONS ############
include ${global_data_path}/ntw_pair_style/ntw.lmp
include /home/adi/workspace-directory/courses/iitr-phn600b-msc-thesis-project/code/../data/ntw_pair_style/ntw.lmp
labelmap atom 1 Si
labelmap atom 2 O

variable mass_Si equal 1.00
variable mass_O equal 0.57

mass Si 1.00
mass O  0.57

pair_style ntw ${ntw_gamma} ${cut}
pair_style ntw 2.2 ${cut}
pair_style ntw 2.2 4.22535211267606

variable eps11 equal 1.0
variable eps12 equal 6.0
variable eps22 equal 1.0

variable sig11 equal 1.00
variable sig12 equal 0.49
variable sig22 equal 0.85

#variable rc11 equal ${ntw_gamma}*${sig11}
#variable rc12 equal ${ntw_gamma}*${sig12}
#variable rc22 equal ${ntw_gamma}*${sig22}

pair_coeff Si Si 1.0 1.00
pair_coeff Si O  6.0 0.49
pair_coeff O  O  1.0 0.85

variable frac_Si equal 0.33
variable frac_O  equal 0.67

variable n_Si equal round(${frac_Si}*${initial_num_atoms})
variable n_Si equal round(0.33*${initial_num_atoms})
variable n_Si equal round(0.33*501)
variable n_O  equal round(${frac_O}*${initial_num_atoms})
variable n_O  equal round(0.67*${initial_num_atoms})
variable n_O  equal round(0.67*501)

create_atoms 1 random ${n_Si} 341341 simulation_box
create_atoms 1 random 165 341341 simulation_box
Created 165 atoms
  using lattice units in orthogonal box = (-3.3572466 -3.3572466 -3.3572466) to (3.3572466 3.3572466 3.3572466)
  create_atoms CPU = 0.000 seconds
create_atoms 2 random ${n_O}  127569 simulation_box
create_atoms 2 random 336  127569 simulation_box
Created 336 atoms
  using lattice units in orthogonal box = (-3.3572466 -3.3572466 -3.3572466) to (3.3572466 3.3572466 3.3572466)
  create_atoms CPU = 0.000 seconds

############ RUN SIMULATION ############
include ${script_path}/simulation.lmp
include /home/adi/workspace-directory/courses/iitr-phn600b-msc-thesis-project/code/../runs/nve_lammps_pair_style/scripts/simulation.lmp
variable data_path string ${data_root_path}/N_${initial_num_atoms}
variable data_path string /home/adi/workspace-directory/courses/iitr-phn600b-msc-thesis-project/code/../runs/nve_lammps_pair_style/data/N_${initial_num_atoms}
variable data_path string /home/adi/workspace-directory/courses/iitr-phn600b-msc-thesis-project/code/../runs/nve_lammps_pair_style/data/N_501
shell mkdir ${data_path}
shell mkdir /home/adi/workspace-directory/courses/iitr-phn600b-msc-thesis-project/code/../runs/nve_lammps_pair_style/data/N_501
include ${script_path}/compute.lmp
include /home/adi/workspace-directory/courses/iitr-phn600b-msc-thesis-project/code/../runs/nve_lammps_pair_style/scripts/compute.lmp
variable global_exp_stride               equal 100
variable global_exp_avg_stride           equal 1
variable global_exp_avg_num              equal 1

variable xvfp_calcp                      equal 0
variable xvfp_exp_stride                 equal 10000 #${global_exp_stride}

variable temperature_calcp               equal 1
variable temperature_exp_stride          equal ${global_exp_stride}
variable temperature_exp_stride          equal 100
variable temperature_exp_avg_stride      equal ${global_exp_avg_stride}
variable temperature_exp_avg_stride      equal 1
variable temperature_exp_avg_num         equal ${global_exp_avg_num}
variable temperature_exp_avg_num         equal 1

variable pressure_calcp                  equal 1
variable pressure_exp_stride             equal ${global_exp_stride}
variable pressure_exp_stride             equal 100
variable pressure_exp_avg_stride         equal ${global_exp_avg_stride}
variable pressure_exp_avg_stride         equal 1
variable pressure_exp_avg_num            equal ${global_exp_avg_num}
variable pressure_exp_avg_num            equal 1

variable momentum_calcp                  equal 1
variable momentum_exp_stride             equal ${global_exp_stride}
variable momentum_exp_stride             equal 100
variable momentum_exp_avg_stride         equal ${global_exp_avg_stride}
variable momentum_exp_avg_stride         equal 1
variable momentum_exp_avg_num            equal ${global_exp_avg_num}
variable momentum_exp_avg_num            equal 1

variable angular_momentum_calcp          equal 0
variable angular_momentum_exp_stride     equal ${global_exp_stride}
variable angular_momentum_exp_stride     equal 100
variable angular_momentum_exp_avg_stride equal ${global_exp_avg_stride}
variable angular_momentum_exp_avg_stride equal 1
variable angular_momentum_exp_avg_num    equal ${global_exp_avg_num}
variable angular_momentum_exp_avg_num    equal 1

variable energy_calcp                    equal 1
variable energy_exp_stride               equal ${global_exp_stride}
variable energy_exp_stride               equal 100
variable energy_exp_avg_stride           equal ${global_exp_avg_stride}
variable energy_exp_avg_stride           equal 1
variable energy_exp_avg_num              equal ${global_exp_avg_num}
variable energy_exp_avg_num              equal 1

variable velocity_dist_calcp              equal 1
variable velocity_dist_exp_stride         equal 100000 #${global_exp_stride}
variable velocity_dist_exp_avg_stride     equal 1 #${global_exp_avg_stride}
variable velocity_dist_exp_avg_num        equal 1  #${global_exp_avg_num}

variable rdf_calcp              equal 1
variable rdf_exp_stride         equal 100000
variable rdf_exp_avg_stride     equal 1
variable rdf_exp_avg_num        equal 1000
variable rdf_bins               equal 500
variable rdf_cutoff_11          equal ${cut}
variable rdf_cutoff_11          equal 4.22535211267606
variable rdf_cutoff_12          equal ${cut}
variable rdf_cutoff_12          equal 4.22535211267606
variable rdf_cutoff_22          equal ${cut}
variable rdf_cutoff_22          equal 4.22535211267606

variable adf_calcp              equal 0
variable adf_exp_stride         equal 10000
variable adf_exp_avg_stride     equal 1
variable adf_exp_avg_num        equal 1
variable adf_bins               equal 500
variable adf_inner_cutoff_111   equal 0.0
variable adf_inner_cutoff_121   equal 0.0
variable adf_inner_cutoff_212   equal 0.0
variable adf_inner_cutoff_222   equal 0.0
variable adf_outer_cutoff_111   equal 3 #${cut}
variable adf_outer_cutoff_121   equal 3 #${cut}
variable adf_outer_cutoff_212   equal 3 #${cut}
variable adf_outer_cutoff_222   equal 3 #${cut}

###################################################
############ DO NOT MODIFY ########################
###################################################
compute type_chunk all chunk/atom type

if "${rdf_calcp} == 1"  then    "compute calc_rdf_all all rdf ${rdf_bins}"    "compute calc_rdf_11 all rdf ${rdf_bins} 1 1"    "compute calc_rdf_12 all rdf ${rdf_bins} 1 2"    "compute calc_rdf_22 all rdf ${rdf_bins} 2 2"    #"fix dump_rdf_all all ave/time ${rdf_exp_avg_stride} ${rdf_exp_avg_num} ${rdf_exp_stride}    #     c_calc_rdf_all[1]  c_calc_rdf_all[2]  c_calc_rdf_all[3] file ${data_path}/rdf_all.dat mode vector"    "fix dump_rdf_11 all ave/time ${rdf_exp_avg_stride} ${rdf_exp_avg_num} ${rdf_exp_stride}         c_calc_rdf_11[1]  c_calc_rdf_11[2]  c_calc_rdf_11[3] file ${data_path}/rdf_11.dat mode vector"    "fix dump_rdf_12 all ave/time ${rdf_exp_avg_stride} ${rdf_exp_avg_num} ${rdf_exp_stride}         c_calc_rdf_12[1] c_calc_rdf_12[2] c_calc_rdf_12[3] file ${data_path}/rdf_12.dat mode vector"    "fix dump_rdf_22 all ave/time ${rdf_exp_avg_stride} ${rdf_exp_avg_num} ${rdf_exp_stride}         c_calc_rdf_22[1] c_calc_rdf_22[2] c_calc_rdf_22[3] file ${data_path}/rdf_22.dat mode vector"
compute calc_rdf_all all rdf ${rdf_bins}
compute calc_rdf_all all rdf 500
compute calc_rdf_11 all rdf ${rdf_bins} 1 1
compute calc_rdf_11 all rdf 500 1 1
compute calc_rdf_12 all rdf ${rdf_bins} 1 2
compute calc_rdf_12 all rdf 500 1 2
compute calc_rdf_22 all rdf ${rdf_bins} 2 2
compute calc_rdf_22 all rdf 500 2 2

if "${adf_calcp} == 1" then    "compute calc_adf_all all adf ${adf_bins}"    "compute calc_adf_111 all adf ${adf_bins} 1 1 1  ${adf_inner_cutoff_111} ${adf_outer_cutoff_111} ${adf_inner_cutoff_111} ${adf_outer_cutoff_111} ordinate degree"    "compute calc_adf_121 all adf ${adf_bins} 2 1 1  ${adf_inner_cutoff_121} ${adf_outer_cutoff_121} ${adf_inner_cutoff_121} ${adf_outer_cutoff_121} ordinate degree"    "compute calc_adf_212 all adf ${adf_bins} 1 2 2  ${adf_inner_cutoff_212} ${adf_outer_cutoff_212} ${adf_inner_cutoff_212} ${adf_outer_cutoff_212} ordinate degree"    "compute calc_adf_222 all adf ${adf_bins} 2 2 2  ${adf_inner_cutoff_222} ${adf_outer_cutoff_222} ${adf_inner_cutoff_222} ${adf_outer_cutoff_222} ordinate degree"    "fix dump_adf_all all ave/time ${adf_exp_avg_stride} ${adf_exp_avg_num} ${adf_exp_stride}         c_calc_adf_all[1]  c_calc_adf_all[2]  c_calc_adf_all[3] file ${data_path}/adf_all.dat mode vector"    "fix dump_adf_111 all ave/time ${adf_exp_avg_stride} ${adf_exp_avg_num} ${adf_exp_stride}         c_calc_adf_111[1]  c_calc_adf_111[2]  c_calc_adf_111[3] file ${data_path}/adf_111.dat mode vector"    "fix dump_adf_121 all ave/time ${adf_exp_avg_stride} ${adf_exp_avg_num} ${adf_exp_stride}         c_calc_adf_121[1]  c_calc_adf_121[2]  c_calc_adf_121[3] file ${data_path}/adf_121.dat mode vector"    "fix dump_adf_212 all ave/time ${adf_exp_avg_stride} ${adf_exp_avg_num} ${adf_exp_stride}         c_calc_adf_212[1]  c_calc_adf_212[2]  c_calc_adf_212[3] file ${data_path}/adf_212.dat mode vector"    "fix dump_adf_222 all ave/time ${adf_exp_avg_stride} ${adf_exp_avg_num} ${adf_exp_stride}         c_calc_adf_222[1]  c_calc_adf_222[2]  c_calc_adf_222[3] file ${data_path}/adf_222.dat mode vector"

if "${xvfp_calcp} == 1" then    "compute calc_pe_atom all pe/atom"    "dump dump_xvfp all custom ${xvfp_exp_stride} ${data_path}/xvfp.dat          id type x y z vx vy vz fx fy fz c_calc_pe_atom"

if "${temperature_calcp} == 1" then    "compute calc_temperature all temp"    "fix dump_temperature all ave/time ${temperature_exp_avg_stride} ${temperature_exp_avg_num} ${temperature_exp_stride}         c_calc_temperature file ${data_path}/temperature.dat"
compute calc_temperature all temp
fix dump_temperature all ave/time ${temperature_exp_avg_stride} ${temperature_exp_avg_num} ${temperature_exp_stride}         c_calc_temperature file ${data_path}/temperature.dat
fix dump_temperature all ave/time 1 ${temperature_exp_avg_num} ${temperature_exp_stride}         c_calc_temperature file ${data_path}/temperature.dat
fix dump_temperature all ave/time 1 1 ${temperature_exp_stride}         c_calc_temperature file ${data_path}/temperature.dat
fix dump_temperature all ave/time 1 1 100         c_calc_temperature file ${data_path}/temperature.dat
fix dump_temperature all ave/time 1 1 100         c_calc_temperature file /home/adi/workspace-directory/courses/iitr-phn600b-msc-thesis-project/code/../runs/nve_lammps_pair_style/data/N_501/temperature.dat

if "${pressure_calcp} == 1 && ${temperature_calcp} == 1" then    "compute calc_pressure all pressure calc_temperature virial"
compute calc_pressure all pressure calc_temperature virial
if "${pressure_calcp} == 1 && ${temperature_calcp} != 1" then    "compute calc_pressure all pressure NULL virial"
if "${pressure_calcp} == 1" then    "fix dump_pressure all ave/time ${pressure_exp_avg_stride} ${pressure_exp_avg_num} ${pressure_exp_stride}         c_calc_pressure file ${data_path}/pressure.dat"
fix dump_pressure all ave/time ${pressure_exp_avg_stride} ${pressure_exp_avg_num} ${pressure_exp_stride}         c_calc_pressure file ${data_path}/pressure.dat
fix dump_pressure all ave/time 1 ${pressure_exp_avg_num} ${pressure_exp_stride}         c_calc_pressure file ${data_path}/pressure.dat
fix dump_pressure all ave/time 1 1 ${pressure_exp_stride}         c_calc_pressure file ${data_path}/pressure.dat
fix dump_pressure all ave/time 1 1 100         c_calc_pressure file ${data_path}/pressure.dat
fix dump_pressure all ave/time 1 1 100         c_calc_pressure file /home/adi/workspace-directory/courses/iitr-phn600b-msc-thesis-project/code/../runs/nve_lammps_pair_style/data/N_501/pressure.dat

if "${energy_calcp} == 1" then    "compute calc_ke all ke"    "compute calc_pe all pe"    "fix dump_ke all ave/time ${energy_exp_avg_stride} ${energy_exp_avg_num} ${energy_exp_stride}         c_calc_ke c_calc_pe file ${data_path}/energy.dat"
compute calc_ke all ke
compute calc_pe all pe
fix dump_ke all ave/time ${energy_exp_avg_stride} ${energy_exp_avg_num} ${energy_exp_stride}         c_calc_ke c_calc_pe file ${data_path}/energy.dat
fix dump_ke all ave/time 1 ${energy_exp_avg_num} ${energy_exp_stride}         c_calc_ke c_calc_pe file ${data_path}/energy.dat
fix dump_ke all ave/time 1 1 ${energy_exp_stride}         c_calc_ke c_calc_pe file ${data_path}/energy.dat
fix dump_ke all ave/time 1 1 100         c_calc_ke c_calc_pe file ${data_path}/energy.dat
fix dump_ke all ave/time 1 1 100         c_calc_ke c_calc_pe file /home/adi/workspace-directory/courses/iitr-phn600b-msc-thesis-project/code/../runs/nve_lammps_pair_style/data/N_501/energy.dat
if "${momentum_calcp} == 1" then    "compute calc_momentum all momentum"    "fix dump_momentum all ave/time ${momentum_exp_avg_stride} ${momentum_exp_avg_num} ${momentum_exp_stride}         c_calc_momentum[*] file ${data_path}/momentum.dat"
compute calc_momentum all momentum
fix dump_momentum all ave/time ${momentum_exp_avg_stride} ${momentum_exp_avg_num} ${momentum_exp_stride}         c_calc_momentum[*] file ${data_path}/momentum.dat
fix dump_momentum all ave/time 1 ${momentum_exp_avg_num} ${momentum_exp_stride}         c_calc_momentum[*] file ${data_path}/momentum.dat
fix dump_momentum all ave/time 1 1 ${momentum_exp_stride}         c_calc_momentum[*] file ${data_path}/momentum.dat
fix dump_momentum all ave/time 1 1 100         c_calc_momentum[*] file ${data_path}/momentum.dat
fix dump_momentum all ave/time 1 1 100         c_calc_momentum[*] file /home/adi/workspace-directory/courses/iitr-phn600b-msc-thesis-project/code/../runs/nve_lammps_pair_style/data/N_501/momentum.dat

if "${velocity_dist_calcp} == 1" then    "compute calc_vel all property/atom vx vy vz"    "fix aveg_velocity_dist all ave/atom ${velocity_dist_exp_avg_stride} ${velocity_dist_exp_avg_num} ${velocity_dist_exp_stride}         c_calc_vel[1] c_calc_vel[2] c_calc_vel[3]"    "dump dump_velocity_dist all custom ${velocity_dist_exp_stride} ${data_path}/velocity_dist.dat id         f_aveg_velocity_dist[1] f_aveg_velocity_dist[2] f_aveg_velocity_dist[3]"
compute calc_vel all property/atom vx vy vz
fix aveg_velocity_dist all ave/atom ${velocity_dist_exp_avg_stride} ${velocity_dist_exp_avg_num} ${velocity_dist_exp_stride}         c_calc_vel[1] c_calc_vel[2] c_calc_vel[3]
fix aveg_velocity_dist all ave/atom 1 ${velocity_dist_exp_avg_num} ${velocity_dist_exp_stride}         c_calc_vel[1] c_calc_vel[2] c_calc_vel[3]
fix aveg_velocity_dist all ave/atom 1 1 ${velocity_dist_exp_stride}         c_calc_vel[1] c_calc_vel[2] c_calc_vel[3]
fix aveg_velocity_dist all ave/atom 1 1 100000         c_calc_vel[1] c_calc_vel[2] c_calc_vel[3]
dump dump_velocity_dist all custom ${velocity_dist_exp_stride} ${data_path}/velocity_dist.dat id         f_aveg_velocity_dist[1] f_aveg_velocity_dist[2] f_aveg_velocity_dist[3]
dump dump_velocity_dist all custom 100000 ${data_path}/velocity_dist.dat id         f_aveg_velocity_dist[1] f_aveg_velocity_dist[2] f_aveg_velocity_dist[3]
dump dump_velocity_dist all custom 100000 /home/adi/workspace-directory/courses/iitr-phn600b-msc-thesis-project/code/../runs/nve_lammps_pair_style/data/N_501/velocity_dist.dat id         f_aveg_velocity_dist[1] f_aveg_velocity_dist[2] f_aveg_velocity_dist[3]

if "${angular_momentum_calcp} == 1" then    "compute calc_angular_momentum all angmom/chunk type_chunk"    "fix dump_angular_momentum all ave/time ${angular_momentum_exp_avg_stride} ${angular_momentum_exp_avg_num} ${angular_momentum_exp_stride}         c_calc_angular_momentum[*] file ${data_path}/angular_momentum.dat mode vector"

velocity all create ${initial_temperature} 12345 dist gaussian
velocity all create 0.28 12345 dist gaussian
velocity all zero linear
velocity all zero angular

thermo_style custom step temp pe ke etotal press

### STAGE 0 ###
thermo 10
minimize 1.0e-4 1.0e-6 1000 10000

CITE-CITE-CITE-CITE-CITE-CITE-CITE-CITE-CITE-CITE-CITE-CITE-CITE

Your simulation uses code contributions which should be cited:

- Type Label Framework: https://doi.org/10.1021/acs.jpcb.3c08419

@Article{Gissinger24,
 author = {Jacob R. Gissinger, Ilia Nikiforov, Yaser Afshar, Brendon Waters, Moon-ki Choi, Daniel S. Karls, Alexander Stukowski, Wonpil Im, Hendrik Heinz, Axel Kohlmeyer, and Ellad B. Tadmor},
 title = {Type Label Framework for Bonded Force Fields in LAMMPS},
 journal = {J. Phys. Chem. B},
 year =    2024,
 volume =  128,
 number =  13,
 pages =   {3282--3297}
}

CITE-CITE-CITE-CITE-CITE-CITE-CITE-CITE-CITE-CITE-CITE-CITE-CITE

Generated 0 of 1 mixed pair_coeff terms from geometric mixing rule
Neighbor list info ...
  update: every = 1 steps, delay = 0 steps, check = yes
  max neighbors/atom: 2000, page size: 100000
  master list distance cutoff = 4.5253521
  ghost atom cutoff = 4.5253521
  binsize = 2.2626761, bins = 3 3 3
  5 neighbor lists, perpetual/occasional/extra = 1 4 0
  (1) pair ntw, perpetual
      attributes: half, newton on
      pair build: half/bin/atomonly/newton
      stencil: half/bin/3d
      bin: standard
  (2) compute rdf, occasional, copy from (1)
      attributes: half, newton on
      pair build: copy
      stencil: none
      bin: none
  (3) compute rdf, occasional, copy from (1)
      attributes: half, newton on
      pair build: copy
      stencil: none
      bin: none
  (4) compute rdf, occasional, copy from (1)
      attributes: half, newton on
      pair build: copy
      stencil: none
      bin: none
  (5) compute rdf, occasional, copy from (1)
      attributes: half, newton on
      pair build: copy
      stencil: none
      bin: none
Per MPI rank memory allocation (min/avg/max) = 4.705 | 4.708 | 4.711 Mbytes
   Step          Temp          PotEng         KinEng         TotEng         Press     
         0   0.2796467      1.21238e+08    0.41863279     1.21238e+08    8.0259693e+08
        10   0.2796467      574.02656      0.41863279     574.44519      3883.1615    
        20   0.2796467      3.9126669      0.41863279     4.3312996      48.973866    
        30   0.2796467     -2.8951885      0.41863279    -2.4765557      6.3593826    
        40   0.2796467     -4.1652886      0.41863279    -3.7466558      2.2947751    
        50   0.2796467     -4.6014121      0.41863279    -4.1827793      2.1497402    
        60   0.2796467     -4.8333665      0.41863279    -4.4147337      1.9527221    
        66   0.2796467     -4.9070322      0.41863279    -4.4883994      2.0553308    
Loop time of 0.0616131 on 8 procs for 66 steps with 501 atoms

94.2% CPU use with 8 MPI tasks x no OpenMP threads

Minimization stats:
  Stopping criterion = energy tolerance
  Energy initial, next-to-last, final = 
       121238003.03919  -4.90702344772914  -4.90703223514736
  Force two-norm initial, final = 4.8173987e+12 407.9859
  Force max component initial, final = 2.1133181e+12 123.96641
  Final line search alpha, max atom move = 1.5819077e-05 0.0019610342
  Iterations, force evaluations = 66 161

MPI task timing breakdown:
Section |  min time  |  avg time  |  max time  |%varavg| %total
---------------------------------------------------------------
Pair    | 0.013857   | 0.018034   | 0.0242     |   2.5 | 29.27
Neigh   | 0.01166    | 0.013721   | 0.015905   |   1.1 | 22.27
Comm    | 0.017176   | 0.025322   | 0.031315   |   2.8 | 41.10
Output  | 0.00013014 | 0.00014445 | 0.0001736  |   0.0 |  0.23
Modify  | 0          | 0          | 0          |   0.0 |  0.00
Other   |            | 0.004392   |            |       |  7.13

Nlocal:         62.625 ave          72 max          50 min
Histogram: 1 0 0 1 1 1 1 1 1 1
Nghost:        3124.88 ave        3196 max        3070 min
Histogram: 1 1 1 1 0 2 1 0 0 1
Neighs:        20103.9 ave       22864 max       16220 min
Histogram: 1 0 1 0 0 2 0 2 1 1

Total # of neighbors = 160831
Ave neighs/atom = 321.01996
Neighbor list builds = 28
Dangerous builds = 0

### STAGE 1 ###
thermo 1000
fix run_nve_1 all nve
timestep ${dt}
timestep 0.001
run 100000
Generated 0 of 1 mixed pair_coeff terms from geometric mixing rule
Per MPI rank memory allocation (min/avg/max) = 4.833 | 4.836 | 4.838 Mbytes
   Step          Temp          PotEng         KinEng         TotEng         Press     
        66   0.2796467     -4.9070322      0.41863279    -4.4883994      2.0553308    
      1000   0.43102084    -5.1336393      0.64524077    -4.4883985      2.1816625    
      2000   0.45574768    -5.1706564      0.682257      -4.4883994      2.1006747    
      3000   0.47007033    -5.1921083      0.7036981     -4.4884102      1.2979984    
      4000   0.50504157    -5.2444638      0.75605025    -4.4884135      1.9451952    
      5000   0.50829772    -5.2493454      0.76092473    -4.4884207      1.5979472    
      6000   0.50662167    -5.2468309      0.75841567    -4.4884153      1.396632     
      7000   0.51685587    -5.2621645      0.77373634    -4.4884281      1.3623947    
      8000   0.49370062    -5.2274971      0.73907279    -4.4884243      1.40007      
      9000   0.50334431    -5.2419233      0.75350944    -4.4884138      1.4359833    
     10000   0.52914636    -5.2805497      0.79213527    -4.4884144      1.3540768    
     11000   0.51494269    -5.2593116      0.77087229    -4.4884393      1.3211462    
     12000   0.53153901    -5.2841379      0.79571708    -4.4884208      1.4365359    
     13000   0.4996848     -5.2364557      0.74803114    -4.4884245      1.680838     
     14000   0.49594648    -5.2308412      0.74243485    -4.4884063      1.4913517    
     15000   0.49086787    -5.2232264      0.73483215    -4.4883943      1.8755211    
     16000   0.50563616    -5.2453534      0.75694036    -4.4884131      2.0541403    
     17000   0.52546086    -5.2750363      0.78661806    -4.4884182      1.8007044    
     18000   0.54645253    -5.3064566      0.81804271    -4.4884139      1.7675198    
     19000   0.52380971    -5.2725453      0.78414628    -4.488399       1.5069593    
     20000   0.51482446    -5.2591229      0.77069531    -4.4884276      1.8279856    
     21000   0.50764477    -5.2483717      0.75994725    -4.4884244      1.6887429    
     22000   0.5442244     -5.3031319      0.81470719    -4.4884247      1.6527511    
     23000   0.53241379    -5.2854201      0.79702663    -4.4883935      2.023961     
     24000   0.52659269    -5.2767128      0.78831241    -4.4884004      2.1944444    
     25000   0.53152006    -5.2841026      0.79568872    -4.4884138      1.4400699    
     26000   0.53756498    -5.2931553      0.80473799    -4.4884173      1.2629665    
     27000   0.54056809    -5.297655       0.80923367    -4.4884213      1.9031737    
     28000   0.52720223    -5.2776466      0.7892249     -4.4884217      1.3097662    
     29000   0.49518361    -5.2297096      0.74129283    -4.4884168      1.8757541    
     30000   0.51525361    -5.2597541      0.77133774    -4.4884163      1.8852309    
     31000   0.54691708    -5.3071622      0.81873814    -4.488424       1.9848379    
     32000   0.52333474    -5.2718702      0.78343524    -4.4884349      1.3794154    
     33000   0.53413075    -5.288021       0.79959693    -4.4884241      1.246552     
     34000   0.51592536    -5.2607629      0.77234336    -4.4884196      1.489314     
     35000   0.54246449    -5.3004886      0.8120726     -4.488416       2.1745615    
     36000   0.53640226    -5.2914113      0.80299739    -4.4884139      1.5332206    
     37000   0.52866692    -5.2798412      0.79141755    -4.4884237      1.9799054    
     38000   0.5388973     -5.2951516      0.80673248    -4.4884191      1.5170837    
     39000   0.54729742    -5.3077257      0.81930751    -4.4884182      1.6304832    
     40000   0.54717216    -5.3075511      0.81912       -4.4884311      1.4133502    
     41000   0.52771573    -5.2784302      0.78999361    -4.4884366      1.542038     
     42000   0.520546      -5.2676786      0.77926047    -4.4884181      1.5420896    
     43000   0.528722      -5.279922       0.7915        -4.488422       1.4317569    
     44000   0.50882796    -5.2501259      0.76171851    -4.4884074      2.0483191    
     45000   0.53614476    -5.2910369      0.80261192    -4.488425       1.5156398    
     46000   0.50411769    -5.2430834      0.7546672     -4.4884162      1.7943848    
     47000   0.52819132    -5.2791254      0.79070557    -4.4884198      1.0932427    
     48000   0.48532285    -5.2149456      0.72653122    -4.4884144      1.3651513    
     49000   0.50728877    -5.2478478      0.75941432    -4.4884335      2.4747243    
     50000   0.50465965    -5.2438965      0.75547852    -4.4884179      1.7026248    
     51000   0.53472435    -5.2889162      0.80048555    -4.4884306      1.3704234    
     52000   0.49800219    -5.2339329      0.74551226    -4.4884207      1.3317283    
     53000   0.51632896    -5.261367       0.77294754    -4.4884195      1.3947593    
     54000   0.53324363    -5.2866839      0.7982689     -4.488415       1.3316146    
     55000   0.53569015    -5.2903536      0.80193137    -4.4884222      2.537325     
     56000   0.51910608    -5.2655341      0.7771049     -4.4884292      2.0350257    
     57000   0.52434653    -5.273352       0.78494989    -4.4884021      2.3979947    
     58000   0.55775403    -5.3233993      0.83496113    -4.4884382      2.7206272    
     59000   0.5509381     -5.3131862      0.82475764    -4.4884285      1.6801938    
     60000   0.54184772    -5.2995521      0.81114928    -4.4884028      1.7286007    
     61000   0.55680579    -5.3219788      0.83354161    -4.4884371      2.0913001    
     62000   0.50721806    -5.2477108      0.75930847    -4.4884023      1.5052112    
     63000   0.55954112    -5.3260896      0.83763641    -4.4884532      2.219293     
     64000   0.53599268    -5.2907918      0.80238425    -4.4884076      2.0026263    
     65000   0.52409392    -5.2729793      0.78457174    -4.4884076      1.9001845    
     66000   0.52020276    -5.2671556      0.77874664    -4.488409       1.6808842    
     67000   0.52352563    -5.2721494      0.78372101    -4.4884284      2.0238311    
     68000   0.51887241    -5.2651727      0.7767551     -4.4884176      1.3773795    
     69000   0.5354743     -5.2900278      0.80160824    -4.4884196      1.363826     
     70000   0.51958867    -5.2662546      0.77782735    -4.4884272      1.4974011    
     71000   0.51560129    -5.2602726      0.77185822    -4.4884144      1.4444917    
     72000   0.51023604    -5.2522442      0.7638264     -4.4884178      1.6963659    
     73000   0.52042225    -5.2674918      0.77907522    -4.4884166      1.7969306    
     74000   0.51079315    -5.253074       0.7646604     -4.4884136      2.0341279    
     75000   0.52018683    -5.2671293      0.7787228     -4.4884065      1.5627576    
     76000   0.52295077    -5.2712952      0.78286044    -4.4884348      1.6867043    
     77000   0.52885129    -5.280123       0.79169355    -4.4884295      1.2435192    
     78000   0.51017789    -5.2521633      0.76373936    -4.4884239      1.8686627    
     79000   0.54907326    -5.3104024      0.82196596    -4.4884365      1.7907816    
     80000   0.51423876    -5.2582234      0.7698185     -4.4884049      1.5615246    
     81000   0.51419832    -5.2581836      0.76975797    -4.4884256      1.9058583    
     82000   0.53745369    -5.2930063      0.80457139    -4.4884349      1.967006     
     83000   0.52532832    -5.2748354      0.78641965    -4.4884157      1.9553753    
     84000   0.51657277    -5.2617249      0.77331254    -4.4884124      2.0313634    
     85000   0.50518652    -5.2446821      0.75626725    -4.4884149      2.0822016    
     86000   0.56101772    -5.3282706      0.83984689    -4.4884237      1.6913513    
     87000   0.56545325    -5.3349414      0.8464869     -4.4884545      1.5817707    
     88000   0.55685284    -5.322034       0.83361203    -4.4884219      1.3543512    
     89000   0.51907358    -5.2654877      0.77705625    -4.4884314      1.5544142    
     90000   0.54347027    -5.3020011      0.81357825    -4.4884228      1.4358622    
     91000   0.52616719    -5.2760855      0.78767544    -4.4884101      2.0272102    
     92000   0.52849675    -5.279589       0.7911628     -4.4884262      1.2071603    
     93000   0.53913381    -5.2955022      0.80708654    -4.4884157      2.1001549    
     94000   0.49729766    -5.23286        0.74445757    -4.4884024      1.5865023    
     95000   0.54202727    -5.2998326      0.81141807    -4.4884145      1.8153107    
     96000   0.50990121    -5.2517416      0.76332517    -4.4884165      1.8606703    
     97000   0.52340029    -5.2719643      0.78353336    -4.4884309      2.2255675    
     98000   0.50592311    -5.2457864      0.75736992    -4.4884165      1.645893     
     99000   0.52089979    -5.2682026      0.77979011    -4.4884125      1.7715399    
    100000   0.5034209     -5.2420382      0.75362411    -4.4884141      2.3247803    
    100066   0.52737668    -5.2779057      0.78948604    -4.4884196      1.0624766    
Loop time of 18.9996 on 8 procs for 100000 steps with 501 atoms

Performance: 454745.804 tau/day, 5263.262 timesteps/s, 2.637 Matom-step/s
84.0% CPU use with 8 MPI tasks x no OpenMP threads

MPI task timing breakdown:
Section |  min time  |  avg time  |  max time  |%varavg| %total
---------------------------------------------------------------
Pair    | 7.083      | 7.312      | 7.5398     |   5.0 | 38.49
Neigh   | 1.1262     | 1.1593     | 1.1814     |   1.5 |  6.10
Comm    | 9.1851     | 9.3965     | 9.646      |   4.6 | 49.46
Output  | 0.0025963  | 0.0027707  | 0.0032045  |   0.3 |  0.01
Modify  | 0.11082    | 0.11433    | 0.11657    |   0.6 |  0.60
Other   |            | 1.015      |            |       |  5.34

Nlocal:         62.625 ave          71 max          57 min
Histogram: 1 0 2 2 1 1 0 0 0 1
Nghost:        3077.75 ave        3120 max        3025 min
Histogram: 1 1 0 0 2 1 0 0 1 2
Neighs:        20099.4 ave       21748 max       18674 min
Histogram: 1 0 1 2 1 1 0 1 0 1

Total # of neighbors = 160795
Ave neighs/atom = 320.9481
Neighbor list builds = 2314
Dangerous builds = 0
dump save all custom 1 ${global_data_path}/initial_states/nve_${initial_num_atoms}.dat id type x y z vx vy vz
dump save all custom 1 /home/adi/workspace-directory/courses/iitr-phn600b-msc-thesis-project/code/../data/initial_states/nve_${initial_num_atoms}.dat id type x y z vx vy vz
dump save all custom 1 /home/adi/workspace-directory/courses/iitr-phn600b-msc-thesis-project/code/../data/initial_states/nve_501.dat id type x y z vx vy vz
run 1
Generated 0 of 1 mixed pair_coeff terms from geometric mixing rule
Per MPI rank memory allocation (min/avg/max) = 5.209 | 5.211 | 5.213 Mbytes
   Step          Temp          PotEng         KinEng         TotEng         Press     
    100066   0.52737668    -5.2779057      0.78948604    -4.4884196      1.0624766    
    100067   0.52656094    -5.276683       0.78826489    -4.4884181      1.0806028    
Loop time of 0.000461469 on 8 procs for 1 steps with 501 atoms

Performance: 187227.975 tau/day, 2166.990 timesteps/s, 1.086 Matom-step/s
49.3% CPU use with 8 MPI tasks x no OpenMP threads

MPI task timing breakdown:
Section |  min time  |  avg time  |  max time  |%varavg| %total
---------------------------------------------------------------
Pair    | 0.00012198 | 0.00013382 | 0.00014985 |   0.0 | 29.00
Neigh   | 0          | 0          | 0          |   0.0 |  0.00
Comm    | 9.8637e-05 | 0.00011568 | 0.00012706 |   0.0 | 25.07
Output  | 0.00014361 | 0.00017112 | 0.00019478 |   0.0 | 37.08
Modify  | 1.283e-06  | 1.9302e-06 | 2.374e-06  |   0.0 |  0.42
Other   |            | 3.891e-05  |            |       |  8.43

Nlocal:         62.625 ave          72 max          57 min
Histogram: 2 1 1 1 0 1 1 0 0 1
Nghost:           3089 ave        3130 max        3045 min
Histogram: 1 1 0 1 1 0 1 1 1 1
Neighs:        20089.9 ave       21981 max       18545 min
Histogram: 2 1 1 1 0 0 0 0 1 2

Total # of neighbors = 160719
Ave neighs/atom = 320.79641
Neighbor list builds = 0
Dangerous builds = 0
unfix run_nve_1
Total wall time: 0:00:19
